HUN,8,6,361
1,22,0,22,2,28,4,20,5,19,3,19
0,27,2,15,1,7,5,3,4,26,3,18
1,6,2,27,0,13,5,4,4,22,3,29
2,6,1,28,0,23,3,25,4,9,5,25
1,3,0,5,2,4,5,11,3,26,4,29
1,25,2,19,0,8,3,6,5,19,4,10
1,21,2,23,0,12,5,15,3,26,4,18
2,1,0,17,1,21,3,16,5,3,4,3
